1
1000
249
499 1
498 1
498 1
498 1
498 1
498 1
496 1
488 1
486 1
486 1
483 1
483 1
482 1
481 1
480 1
479 1
476 1
476 1
475 1
475 1
474 1
468 1
467 1
467 1
467 1
466 1
461 1
461 1
461 1
460 1
460 1
459 1
458 1
455 1
453 1
452 1
451 1
448 1
448 1
447 1
446 1
445 1
445 1
442 1
440 1
439 1
433 1
429 1
427 1
427 1
425 1
423 1
421 1
421 1
420 1
415 1
414 1
413 1
410 1
409 1
409 1
408 1
403 1
401 1
401 1
400 1
398 1
397 1
396 1
390 1
387 1
386 1
383 1
379 1
378 1
375 1
374 1
374 1
374 1
371 1
368 1
365 1
362 1
360 1
359 1
358 1
355 1
353 1
351 1
351 1
350 1
349 1
346 1
346 1
345 1
344 1
343 1
340 1
337 1
335 1
335 1
325 1
322 1
322 1
322 1
322 1
321 1
320 1
319 1
318 1
317 1
317 1
317 1
315 1
308 1
308 1
305 1
305 1
303 1
303 1
302 1
301 1
300 1
298 1
296 1
296 1
296 1
295 1
294 1
294 1
294 1
294 1
290 1
289 1
289 1
287 1
287 1
286 1
286 1
286 1
285 1
285 1
284 1
283 1
283 1
282 1
281 1
281 1
281 1
280 1
278 1
278 1
277 1
276 1
276 1
275 1
275 1
274 1
273 1
273 1
273 1
272 1
271 1
271 1
270 1
270 1
269 1
269 1
269 1
269 1
268 1
268 1
267 1
267 1
267 1
266 1
266 1
265 1
265 1
265 1
264 1
264 1
263 1
263 1
263 1
263 1
263 1
262 1
262 1
262 1
261 1
261 1
261 1
260 1
259 1
259 1
258 1
258 1
258 1
258 1
258 1
257 1
257 1
256 1
256 1
256 1
255 1
255 1
255 1
255 1
255 1
254 1
254 1
254 1
254 1
254 1
254 1
254 1
253 1
253 1
253 1
253 1
253 1
252 1
252 1
252 1
252 1
252 1
252 1
252 1
252 1
252 1
252 1
252 1
251 1
251 1
251 1
251 1
250 1
250 1
250 1
250 1
250 1
250 1
250 1
250 1
250 1
250 1
250 1
